solution status: optimal solution found
objective value:                       155431.0148031
d11(0,0)                                            1 	(obj:0)
d11(1,1)                                            1 	(obj:0)
d11(1,2)                                            1 	(obj:0)
d11(2,4)                                            1 	(obj:0)
d11(2,5)                                            1 	(obj:0)
d11(2,7)                                            1 	(obj:0)
d11(2,8)                                            1 	(obj:0)
d11(2,10)                                           1 	(obj:0)
d11(2,11)                                           1 	(obj:0)
d11(3,13)                                           1 	(obj:0)
d11(3,14)                                           1 	(obj:0)
d11(3,16)                                           1 	(obj:0)
d11(3,17)                                           1 	(obj:0)
d11(3,19)                                           1 	(obj:0)
d11(3,20)                                           1 	(obj:0)
d11(3,22)                                           1 	(obj:0)
d11(3,23)                                           1 	(obj:0)
d11(3,25)                                           1 	(obj:0)
d11(3,26)                                           1 	(obj:0)
d11(3,28)                                           1 	(obj:0)
d11(3,29)                                           1 	(obj:0)
d11(3,31)                                           1 	(obj:0)
d11(3,32)                                           1 	(obj:0)
d11(3,34)                                           1 	(obj:0)
d11(3,35)                                           1 	(obj:0)
d11(3,37)                                           1 	(obj:0)
d11(3,38)                                           1 	(obj:0)
d11(4,40)                                           1 	(obj:0)
d11(4,41)                                           1 	(obj:0)
d11(4,43)                                           1 	(obj:0)
d11(4,44)                                           1 	(obj:0)
d11(4,46)                                           1 	(obj:0)
d11(4,47)                                           1 	(obj:0)
d11(4,49)                                           1 	(obj:0)
d11(4,50)                                           1 	(obj:0)
d11(4,52)                                           1 	(obj:0)
d11(4,53)                                           1 	(obj:0)
d11(4,55)                                           1 	(obj:0)
d11(4,56)                                           1 	(obj:0)
d11(4,58)                                           1 	(obj:0)
d11(4,59)                                           1 	(obj:0)
d11(4,61)                                           1 	(obj:0)
d11(4,62)                                           1 	(obj:0)
d11(4,64)                                           1 	(obj:0)
d11(4,65)                                           1 	(obj:0)
d11(4,67)                                           1 	(obj:0)
d11(4,68)                                           1 	(obj:0)
d11(4,70)                                           1 	(obj:0)
d11(4,71)                                           1 	(obj:0)
d11(4,73)                                           1 	(obj:0)
d11(4,74)                                           1 	(obj:0)
d11(4,76)                                           1 	(obj:0)
d11(4,77)                                           1 	(obj:0)
d11(4,79)                                           1 	(obj:0)
d11(4,80)                                           1 	(obj:0)
d11(4,82)                                           1 	(obj:0)
d11(4,83)                                           1 	(obj:0)
d11(4,85)                                           1 	(obj:0)
d11(4,86)                                           1 	(obj:0)
d11(4,88)                                           1 	(obj:0)
d11(4,89)                                           1 	(obj:0)
d11(4,91)                                           1 	(obj:0)
d11(4,92)                                           1 	(obj:0)
d11(4,94)                                           1 	(obj:0)
d11(4,95)                                           1 	(obj:0)
d11(4,97)                                           1 	(obj:0)
d11(4,98)                                           1 	(obj:0)
d11(4,100)                                          1 	(obj:0)
d11(4,101)                                          1 	(obj:0)
d11(4,103)                                          1 	(obj:0)
d11(4,104)                                          1 	(obj:0)
d11(4,106)                                          1 	(obj:0)
d11(4,107)                                          1 	(obj:0)
d11(4,109)                                          1 	(obj:0)
d11(4,110)                                          1 	(obj:0)
d11(4,112)                                          1 	(obj:0)
d11(4,113)                                          1 	(obj:0)
d11(4,115)                                          1 	(obj:0)
d11(4,116)                                          1 	(obj:0)
d11(4,118)                                          1 	(obj:0)
d11(4,119)                                          1 	(obj:0)
d12(1,3)                                            1 	(obj:0)
d12(2,6)                                            1 	(obj:0)
d12(2,9)                                            1 	(obj:0)
d12(2,12)                                           1 	(obj:0)
d12(3,15)                                           1 	(obj:0)
d12(3,18)                                           1 	(obj:0)
d12(3,21)                                           1 	(obj:0)
d12(3,24)                                           1 	(obj:0)
d12(3,27)                                           1 	(obj:0)
d12(3,30)                                           1 	(obj:0)
d12(3,33)                                           1 	(obj:0)
d12(3,36)                                           1 	(obj:0)
d12(3,39)                                           1 	(obj:0)
d12(4,42)                                           1 	(obj:0)
d12(4,45)                                           1 	(obj:0)
d12(4,48)                                           1 	(obj:0)
d12(4,51)                                           1 	(obj:0)
d12(4,54)                                           1 	(obj:0)
d12(4,57)                                           1 	(obj:0)
d12(4,60)                                           1 	(obj:0)
d12(4,63)                                           1 	(obj:0)
d12(4,66)                                           1 	(obj:0)
d12(4,69)                                           1 	(obj:0)
d12(4,72)                                           1 	(obj:0)
d12(4,75)                                           1 	(obj:0)
d12(4,78)                                           1 	(obj:0)
d12(4,81)                                           1 	(obj:0)
d12(4,84)                                           1 	(obj:0)
d12(4,87)                                           1 	(obj:0)
d12(4,90)                                           1 	(obj:0)
d12(4,93)                                           1 	(obj:0)
d12(4,96)                                           1 	(obj:0)
d12(4,99)                                           1 	(obj:0)
d12(4,102)                                          1 	(obj:0)
d12(4,105)                                          1 	(obj:0)
d12(4,108)                                          1 	(obj:0)
d12(4,111)                                          1 	(obj:0)
d12(4,114)                                          1 	(obj:0)
d12(4,117)                                          1 	(obj:0)
d12(4,120)                                          1 	(obj:0)
d21(3,13)                                           1 	(obj:0)
d21(4,40)                                           1 	(obj:0)
d21(4,41)                                           1 	(obj:0)
d21(4,42)                                           1 	(obj:0)
d21(4,43)                                           1 	(obj:0)
d21(4,44)                                           1 	(obj:0)
d21(4,45)                                           1 	(obj:0)
d21(4,46)                                           1 	(obj:0)
d21(4,47)                                           1 	(obj:0)
d21(4,49)                                           1 	(obj:0)
d21(4,50)                                           1 	(obj:0)
d21(4,51)                                           1 	(obj:0)
d21(4,52)                                           1 	(obj:0)
d21(4,53)                                           1 	(obj:0)
d21(4,55)                                           1 	(obj:0)
d21(4,58)                                           1 	(obj:0)
d21(4,59)                                           1 	(obj:0)
d21(4,61)                                           1 	(obj:0)
d21(4,67)                                           1 	(obj:0)
d21(4,68)                                           1 	(obj:0)
d21(4,69)                                           1 	(obj:0)
d21(4,70)                                           1 	(obj:0)
d21(4,71)                                           1 	(obj:0)
d21(4,73)                                           1 	(obj:0)
d21(4,76)                                           1 	(obj:0)
d21(4,77)                                           1 	(obj:0)
d21(4,79)                                           1 	(obj:0)
d21(4,85)                                           1 	(obj:0)
d21(4,94)                                           1 	(obj:0)
d21(4,95)                                           1 	(obj:0)
d21(4,97)                                           1 	(obj:0)
d21(4,100)                                          1 	(obj:0)
d21(4,103)                                          1 	(obj:0)
y2(4,102)                            89.5897362265374 	(obj:0)
y2(4,105)                            89.5897362265374 	(obj:0)
y2(4,108)                            89.5897362265374 	(obj:0)
y2(4,111)                            89.5897362265374 	(obj:0)
y2(4,114)                            89.5897362265374 	(obj:0)
y2(4,117)                            89.5897362265374 	(obj:0)
y2(4,120)                            89.5897362265374 	(obj:0)
STE(1,1)                             10336.3846899613 	(obj:0)
STE(0,0)                                        12600 	(obj:0)
STE(1,2)                             11333.1506932946 	(obj:0)
STE(1,3)                             12274.2138640768 	(obj:0)
STE(2,4)                              7566.8493067056 	(obj:0)
STE(2,5)                             8563.61531003889 	(obj:0)
STE(2,6)                             9560.38131337218 	(obj:0)
STE(2,7)                             8563.61531003889 	(obj:0)
STE(2,8)                             9560.38131337218 	(obj:0)
STE(2,9)                             10557.1473167055 	(obj:0)
STE(2,10)                            9504.67848082111 	(obj:0)
STE(2,11)                            10501.4444841544 	(obj:0)
STE(2,12)                            11498.2104874877 	(obj:0)
STE(3,13)                            5303.23399666671 	(obj:0)
STE(3,14)                                        6300 	(obj:0)
STE(3,15)                            7241.06317078222 	(obj:0)
STE(3,16)                                        6300 	(obj:0)
STE(3,17)                            7296.76600333329 	(obj:0)
STE(3,18)                            8237.82917411551 	(obj:0)
STE(3,19)                            7296.76600333329 	(obj:0)
STE(3,20)                            8293.53200666658 	(obj:0)
STE(3,21)                             9234.5951774488 	(obj:0)
STE(3,22)                                        6300 	(obj:0)
STE(3,23)                            7296.76600333329 	(obj:0)
STE(3,24)                            8237.82917411551 	(obj:0)
STE(3,25)                            7296.76600333329 	(obj:0)
STE(3,26)                            8293.53200666658 	(obj:0)
STE(3,27)                             9234.5951774488 	(obj:0)
STE(3,28)                            8293.53200666657 	(obj:0)
STE(3,29)                            9290.29800999986 	(obj:0)
STE(3,30)                            10231.3611807821 	(obj:0)
STE(3,31)                            7241.06317078222 	(obj:0)
STE(3,32)                            8237.82917411551 	(obj:0)
STE(3,33)                            9178.89234489773 	(obj:0)
STE(3,34)                            8237.82917411551 	(obj:0)
STE(3,35)                             9234.5951774488 	(obj:0)
STE(3,36)                             10175.658348231 	(obj:0)
STE(3,37)                             9234.5951774488 	(obj:0)
STE(3,38)                            10231.3611807821 	(obj:0)
STE(3,39)                            11172.4243515643 	(obj:0)
STE(4,40)                            2368.63881921791 	(obj:0)
STE(4,41)                            3365.40482255121 	(obj:0)
STE(4,42)                            4380.34424608192 	(obj:0)
STE(4,43)                            3365.40482255121 	(obj:0)
STE(4,44)                             4362.1708258845 	(obj:0)
STE(4,45)                            5377.11024941521 	(obj:0)
STE(4,46)                            4306.46799333342 	(obj:0)
STE(4,47)                            5303.23399666672 	(obj:0)
STE(4,48)                            6318.17342019743 	(obj:0)
STE(4,49)                             3365.4048225512 	(obj:0)
STE(4,50)                            4362.17082588449 	(obj:0)
STE(4,51)                            5377.11024941521 	(obj:0)
STE(4,52)                            4362.17082588449 	(obj:0)
STE(4,53)                            5358.93682921779 	(obj:0)
STE(4,54)                             6373.8762527485 	(obj:0)
STE(4,55)                            5303.23399666671 	(obj:0)
STE(4,56)                                        6300 	(obj:0)
STE(4,57)                            7314.93942353072 	(obj:0)
STE(4,58)                             4362.1708258845 	(obj:0)
STE(4,59)                            5358.93682921779 	(obj:0)
STE(4,60)                             6373.8762527485 	(obj:0)
STE(4,61)                            5358.93682921779 	(obj:0)
STE(4,62)                            6355.70283255108 	(obj:0)
STE(4,63)                             7370.6422560818 	(obj:0)
STE(4,64)                                        6300 	(obj:0)
STE(4,65)                            7296.76600333329 	(obj:0)
STE(4,66)                            8311.70542686401 	(obj:0)
STE(4,67)                             3365.4048225512 	(obj:0)
STE(4,68)                            4362.17082588449 	(obj:0)
STE(4,69)                            5377.11024941521 	(obj:0)
STE(4,70)                            4362.17082588449 	(obj:0)
STE(4,71)                            5358.93682921778 	(obj:0)
STE(4,72)                             6373.8762527485 	(obj:0)
STE(4,73)                            5303.23399666671 	(obj:0)
STE(4,74)                                        6300 	(obj:0)
STE(4,75)                            7314.93942353072 	(obj:0)
STE(4,76)                            4362.17082588449 	(obj:0)
STE(4,77)                            5358.93682921778 	(obj:0)
STE(4,78)                             6373.8762527485 	(obj:0)
STE(4,79)                            5358.93682921778 	(obj:0)
STE(4,80)                            6355.70283255107 	(obj:0)
STE(4,81)                            7370.64225608179 	(obj:0)
STE(4,82)                                        6300 	(obj:0)
STE(4,83)                            7296.76600333329 	(obj:0)
STE(4,84)                            8311.70542686401 	(obj:0)
STE(4,85)                            5358.93682921777 	(obj:0)
STE(4,86)                            6355.70283255106 	(obj:0)
STE(4,87)                            7370.64225608178 	(obj:0)
STE(4,88)                            6355.70283255106 	(obj:0)
STE(4,89)                            7352.46883588435 	(obj:0)
STE(4,90)                            8367.40825941507 	(obj:0)
STE(4,91)                            7296.76600333328 	(obj:0)
STE(4,92)                            8293.53200666657 	(obj:0)
STE(4,93)                            9308.47143019729 	(obj:0)
STE(4,94)                            4306.46799333342 	(obj:0)
STE(4,95)                            5303.23399666671 	(obj:0)
STE(4,96)                            6318.17342019743 	(obj:0)
STE(4,97)                            5303.23399666672 	(obj:0)
STE(4,98)                            6300.00000000001 	(obj:0)
STE(4,99)                            7314.93942353072 	(obj:0)
STE(4,100)                           6244.29716744893 	(obj:0)
STE(4,101)                           7241.06317078222 	(obj:0)
STE(4,102)                           8256.00259431294 	(obj:0)
STE(4,103)                           5303.23399666671 	(obj:0)
STE(4,104)                                       6300 	(obj:0)
STE(4,105)                           7314.93942353072 	(obj:0)
STE(4,106)                                       6300 	(obj:0)
STE(4,107)                           7296.76600333329 	(obj:0)
STE(4,108)                           8311.70542686401 	(obj:0)
STE(4,109)                           7241.06317078222 	(obj:0)
STE(4,110)                           8237.82917411551 	(obj:0)
STE(4,111)                           9252.76859764623 	(obj:0)
STE(4,112)                                       6300 	(obj:0)
STE(4,113)                           7296.76600333329 	(obj:0)
STE(4,114)                           8311.70542686401 	(obj:0)
STE(4,115)                            7296.7660033333 	(obj:0)
STE(4,116)                           8293.53200666659 	(obj:0)
STE(4,117)                            9308.4714301973 	(obj:0)
STE(4,118)                           8237.82917411551 	(obj:0)
STE(4,119)                            9234.5951774488 	(obj:0)
STE(4,120)                           10249.5346009795 	(obj:0)
y1(4,100)                            1733.93565970392 	(obj:0)
y1(4,101)                            836.846256703956 	(obj:0)
y1(4,103)                            1733.93565970392 	(obj:0)
y1(4,104)                            836.846256703956 	(obj:0)
y1(4,106)                            1733.93565970392 	(obj:0)
y1(4,107)                            836.846256703956 	(obj:0)
y1(4,109)                            1733.93565970392 	(obj:0)
y1(4,110)                            836.846256703956 	(obj:0)
y1(4,112)                            1733.93565970392 	(obj:0)
y1(4,113)                            836.846256703956 	(obj:0)
y1(4,115)                            1733.93565970392 	(obj:0)
y1(4,116)                            836.846256703956 	(obj:0)
y1(4,118)                            1733.93565970392 	(obj:0)
y1(4,119)                            836.846256703956 	(obj:0)
AVE(3)                                3399.3204933139 	(obj:0)
AVE(4)                               3353.21046544222 	(obj:0)
y2(4,99)                             89.5897362265372 	(obj:0)
WG(3)                                 3399.3204933139 	(obj:10)
WG(4)                                3353.21046544222 	(obj:10)
BG(1)                                3615.56875105592 	(obj:10)
BG(2)                                4080.18922645933 	(obj:10)
BG(3)                                216.248257742208 	(obj:10)
BG(4)                                878.564286296456 	(obj:10)
WB(1)                                3134.60043707458 	(obj:0)
AVE(1)                               3134.60043707458 	(obj:0)
WB(2)                                3326.45170866643 	(obj:0)
AVE(2)                               3326.45170866643 	(obj:0)
y1(1,1)                              1130.05377903485 	(obj:0)
y1(1,2)                              232.964376034891 	(obj:0)
y1(2,4)                              1585.38184493011 	(obj:0)
y1(2,5)                              688.292441930148 	(obj:0)
y1(2,7)                              1585.38184493011 	(obj:0)
y1(2,8)                              688.292441930147 	(obj:0)
y1(2,10)                             1585.38184493011 	(obj:0)
y1(2,11)                             688.292441930148 	(obj:0)
y1(3,13)                               1130.053779035 	(obj:0)
y1(3,14)                              232.96437603504 	(obj:0)
y1(3,16)                               1130.053779035 	(obj:0)
y1(3,17)                              232.96437603504 	(obj:0)
y1(3,19)                               1130.053779035 	(obj:0)
y1(3,20)                              232.96437603504 	(obj:0)
y1(3,22)                               1130.053779035 	(obj:0)
y1(3,23)                              232.96437603504 	(obj:0)
y1(3,25)                               1130.053779035 	(obj:0)
y1(3,26)                              232.96437603504 	(obj:0)
y1(3,28)                               1130.053779035 	(obj:0)
y1(3,29)                              232.96437603504 	(obj:0)
y1(3,31)                               1130.053779035 	(obj:0)
y1(3,32)                              232.96437603504 	(obj:0)
y1(3,34)                               1130.053779035 	(obj:0)
y1(3,35)                              232.96437603504 	(obj:0)
y1(3,37)                               1130.053779035 	(obj:0)
y1(3,38)                              232.96437603504 	(obj:0)
y1(4,40)                             1733.93565970392 	(obj:0)
y1(4,41)                             836.846256703956 	(obj:0)
y1(4,43)                             1733.93565970392 	(obj:0)
y1(4,44)                             836.846256703956 	(obj:0)
y1(4,46)                             1733.93565970392 	(obj:0)
y1(4,47)                             836.846256703956 	(obj:0)
y1(4,49)                             1733.93565970392 	(obj:0)
y1(4,50)                             836.846256703956 	(obj:0)
y1(4,52)                             1733.93565970392 	(obj:0)
y1(4,53)                             836.846256703956 	(obj:0)
y1(4,55)                             1733.93565970392 	(obj:0)
y1(4,56)                             836.846256703956 	(obj:0)
y1(4,58)                             1733.93565970392 	(obj:0)
y1(4,59)                             836.846256703956 	(obj:0)
y1(4,61)                             1733.93565970392 	(obj:0)
y1(4,62)                             836.846256703956 	(obj:0)
y1(4,64)                             1733.93565970392 	(obj:0)
y1(4,65)                             836.846256703956 	(obj:0)
y1(4,67)                             1733.93565970392 	(obj:0)
y1(4,68)                             836.846256703956 	(obj:0)
y1(4,70)                             1733.93565970392 	(obj:0)
y1(4,71)                             836.846256703956 	(obj:0)
y1(4,73)                             1733.93565970392 	(obj:0)
y1(4,74)                             836.846256703956 	(obj:0)
y1(4,76)                             1733.93565970392 	(obj:0)
y1(4,77)                             836.846256703956 	(obj:0)
y1(4,79)                             1733.93565970392 	(obj:0)
y1(4,80)                             836.846256703956 	(obj:0)
y1(4,82)                             1733.93565970392 	(obj:0)
y1(4,83)                             836.846256703956 	(obj:0)
y1(4,85)                             1733.93565970392 	(obj:0)
y1(4,86)                             836.846256703956 	(obj:0)
y1(4,88)                             1733.93565970392 	(obj:0)
y1(4,89)                             836.846256703956 	(obj:0)
y1(4,91)                             1733.93565970392 	(obj:0)
y1(4,92)                             836.846256703956 	(obj:0)
y1(4,94)                             1733.93565970392 	(obj:0)
y1(4,95)                             836.846256703956 	(obj:0)
y1(4,97)                             1733.93565970392 	(obj:0)
y1(4,98)                             836.846256703956 	(obj:0)
y2(1,3)                              718.119856922932 	(obj:0)
y2(2,6)                              244.206972011478 	(obj:0)
y2(2,9)                              244.206972011467 	(obj:0)
y2(2,12)                             244.206972011478 	(obj:0)
y2(3,15)                             718.119856922756 	(obj:0)
y2(3,18)                             718.119856922756 	(obj:0)
y2(3,21)                             718.119856922756 	(obj:0)
y2(3,24)                             718.119856922754 	(obj:0)
y2(3,27)                             718.119856922755 	(obj:0)
y2(3,30)                             718.119856922756 	(obj:0)
y2(3,33)                             718.119856922756 	(obj:0)
y2(3,36)                             718.119856922756 	(obj:0)
y2(3,39)                             718.119856922756 	(obj:0)
y2(4,42)                             89.5897362265375 	(obj:0)
y2(4,45)                             89.5897362265374 	(obj:0)
y2(4,48)                             89.5897362265372 	(obj:0)
y2(4,51)                             89.5897362265372 	(obj:0)
y2(4,54)                             89.5897362265375 	(obj:0)
y2(4,57)                             89.5897362265375 	(obj:0)
y2(4,60)                             89.5897362265372 	(obj:0)
y2(4,63)                             89.5897362265375 	(obj:0)
y2(4,66)                             89.5897362265375 	(obj:0)
y2(4,69)                             89.5897362265375 	(obj:0)
y2(4,72)                             89.5897362265372 	(obj:0)
y2(4,75)                             89.5897362265375 	(obj:0)
y2(4,78)                             89.5897362265372 	(obj:0)
y2(4,81)                             89.5897362265372 	(obj:0)
y2(4,84)                             89.5897362265374 	(obj:0)
y2(4,87)                             89.5897362265374 	(obj:0)
y2(4,90)                             89.5897362265372 	(obj:0)
y2(4,93)                             89.5897362265375 	(obj:0)
y2(4,96)                             89.5897362265372 	(obj:0)
